  4 12 15  2 11  3  5  8  1 13  6 10  7 14  9
  6  1  4  9  5  2 13 15  7  8 11  3 10 14 12
  3  4 15  1 10 13  6  5  8 11  9 12 14  2  7
  9 11  2 14  4  5 15 10  3  6 12  8  1  7 13
 15  9  2  3 11 10 13  5  7  6  1 14  4 12  8